p cnf 200 1110
-101 77 0
-101 -78 0
-101 -74 0
-101 -23 0
-101 -52 0
-101 -32 0
-101 -90 0
-101 47 0
-101 72 0
-101 86 0
101 -77 78 74 23 52 32 90 -47 -72 -86 0
-102 -90 0
-102 47 0
-102 -32 0
-102 -64 0
-102 12 0
-102 -22 0
-102 88 0
-102 -62 0
-102 -59 0
-102 4 0
102 90 -47 32 64 -12 22 -88 62 59 -4 0
-103 -23 0
-103 92 0
-103 65 0
-103 -7 0
-103 44 0
-103 -74 0
-103 -33 0
-103 39 0
-103 61 0
-103 9 0
103 23 -92 -65 7 -44 74 33 -39 -61 -9 0
-104 41 0
-104 -83 0
-104 -86 0
-104 -64 0
-104 45 0
-104 68 0
-104 54 0
-104 -15 0
-104 -1 0
-104 -28 0
104 -41 83 86 64 -45 -68 -54 15 1 28 0
-105 -50 0
-105 39 0
-105 -74 0
-105 -12 0
-105 -83 0
-105 44 0
-105 77 0
-105 73 0
-105 20 0
-105 -81 0
105 50 -39 74 12 83 -44 -77 -73 -20 81 0
-106 -18 0
-106 40 0
-106 -10 0
-106 59 0
-106 -50 0
-106 -21 0
-106 -93 0
-106 13 0
-106 -81 0
-106 -27 0
106 18 -40 10 -59 50 21 93 -13 81 27 0
-107 69 0
-107 -32 0
-107 -17 0
-107 -58 0
-107 -86 0
-107 65 0
-107 40 0
-107 -95 0
-107 -82 0
-107 98 0
107 -69 32 17 58 86 -65 -40 95 82 -98 0
-108 9 0
-108 23 0
-108 -66 0
-108 -84 0
-108 75 0
-108 87 0
-108 81 0
-108 39 0
-108 -83 0
-108 -41 0
108 -9 -23 66 84 -75 -87 -81 -39 83 41 0
-109 51 0
-109 95 0
-109 74 0
-109 -85 0
-109 98 0
-109 -57 0
-109 12 0
-109 76 0
-109 -9 0
-109 43 0
109 -51 -95 -74 85 -98 57 -12 -76 9 -43 0
-110 42 0
-110 65 0
-110 35 0
-110 27 0
-110 84 0
-110 46 0
-110 -100 0
-110 -25 0
-110 51 0
-110 -66 0
110 -42 -65 -35 -27 -84 -46 100 25 -51 66 0
101 102 103 104 105 106 107 108 109 110 0
-111 -8 0
-111 -63 0
-111 70 0
-111 -88 0
-111 56 0
-111 89 0
-111 -94 0
-111 -61 0
-111 45 0
-111 -74 0
111 8 63 -70 88 -56 -89 94 61 -45 74 0
-112 -12 0
-112 50 0
-112 -58 0
-112 -22 0
-112 65 0
-112 59 0
-112 -98 0
-112 69 0
-112 -37 0
-112 -8 0
112 12 -50 58 22 -65 -59 98 -69 37 8 0
-113 -62 0
-113 -19 0
-113 18 0
-113 23 0
-113 -48 0
-113 -4 0
-113 87 0
-113 -20 0
-113 17 0
-113 8 0
113 62 19 -18 -23 48 4 -87 20 -17 -8 0
-114 86 0
-114 93 0
-114 59 0
-114 28 0
-114 -82 0
-114 -89 0
-114 -62 0
-114 -79 0
-114 -17 0
-114 24 0
114 -86 -93 -59 -28 82 89 62 79 17 -24 0
-115 -58 0
-115 1 0
-115 -99 0
-115 65 0
-115 -36 0
-115 -91 0
-115 72 0
-115 70 0
-115 92 0
-115 12 0
115 58 -1 99 -65 36 91 -72 -70 -92 -12 0
-116 -73 0
-116 59 0
-116 -61 0
-116 21 0
-116 91 0
-116 -24 0
-116 56 0
-116 85 0
-116 10 0
-116 -37 0
116 73 -59 61 -21 -91 24 -56 -85 -10 37 0
-117 -27 0
-117 45 0
-117 99 0
-117 52 0
-117 44 0
-117 -89 0
-117 -54 0
-117 55 0
-117 -30 0
-117 -8 0
117 27 -45 -99 -52 -44 89 54 -55 30 8 0
-118 -93 0
-118 -21 0
-118 38 0
-118 16 0
-118 78 0
-118 49 0
-118 95 0
-118 -35 0
-118 -19 0
-118 -55 0
118 93 21 -38 -16 -78 -49 -95 35 19 55 0
-119 -4 0
-119 74 0
-119 -61 0
-119 28 0
-119 -86 0
-119 -33 0
-119 -1 0
-119 97 0
-119 83 0
-119 73 0
119 4 -74 61 -28 86 33 1 -97 -83 -73 0
-120 57 0
-120 -48 0
-120 -64 0
-120 33 0
-120 17 0
-120 73 0
-120 -3 0
-120 13 0
-120 34 0
-120 -10 0
120 -57 48 64 -33 -17 -73 3 -13 -34 10 0
111 112 113 114 115 116 117 118 119 120 0
-121 -97 0
-121 1 0
-121 -94 0
-121 58 0
-121 19 0
-121 48 0
-121 60 0
-121 24 0
-121 68 0
-121 5 0
121 97 -1 94 -58 -19 -48 -60 -24 -68 -5 0
-122 91 0
-122 12 0
-122 -10 0
-122 -26 0
-122 -73 0
-122 43 0
-122 -38 0
-122 -92 0
-122 -99 0
-122 30 0
122 -91 -12 10 26 73 -43 38 92 99 -30 0
-123 82 0
-123 -50 0
-123 96 0
-123 -34 0
-123 -83 0
-123 78 0
-123 -18 0
-123 16 0
-123 56 0
-123 -30 0
123 -82 50 -96 34 83 -78 18 -16 -56 30 0
-124 -5 0
-124 30 0
-124 77 0
-124 -84 0
-124 1 0
-124 24 0
-124 -43 0
-124 -74 0
-124 -4 0
-124 -94 0
124 5 -30 -77 84 -1 -24 43 74 4 94 0
-125 -34 0
-125 26 0
-125 5 0
-125 8 0
-125 22 0
-125 -79 0
-125 -14 0
-125 97 0
-125 41 0
-125 -61 0
125 34 -26 -5 -8 -22 79 14 -97 -41 61 0
-126 -42 0
-126 -78 0
-126 55 0
-126 -80 0
-126 47 0
-126 73 0
-126 -68 0
-126 81 0
-126 -20 0
-126 23 0
126 42 78 -55 80 -47 -73 68 -81 20 -23 0
-127 60 0
-127 83 0
-127 -40 0
-127 84 0
-127 -50 0
-127 27 0
-127 -69 0
-127 15 0
-127 -98 0
-127 -80 0
127 -60 -83 40 -84 50 -27 69 -15 98 80 0
-128 49 0
-128 -70 0
-128 46 0
-128 -11 0
-128 -84 0
-128 -25 0
-128 44 0
-128 -95 0
-128 39 0
-128 20 0
128 -49 70 -46 11 84 25 -44 95 -39 -20 0
-129 -13 0
-129 -17 0
-129 22 0
-129 4 0
-129 -91 0
-129 -29 0
-129 -50 0
-129 26 0
-129 -11 0
-129 95 0
129 13 17 -22 -4 91 29 50 -26 11 -95 0
-130 75 0
-130 19 0
-130 -96 0
-130 7 0
-130 99 0
-130 -36 0
-130 -74 0
-130 29 0
-130 56 0
-130 -39 0
130 -75 -19 96 -7 -99 36 74 -29 -56 39 0
121 122 123 124 125 126 127 128 129 130 0
-131 -56 0
-131 5 0
-131 -41 0
-131 71 0
-131 31 0
-131 -87 0
-131 -77 0
-131 -62 0
-131 -42 0
-131 73 0
131 56 -5 41 -71 -31 87 77 62 42 -73 0
-132 -69 0
-132 75 0
-132 51 0
-132 27 0
-132 -96 0
-132 33 0
-132 -36 0
-132 -74 0
-132 -48 0
-132 91 0
132 69 -75 -51 -27 96 -33 36 74 48 -91 0
-133 42 0
-133 -24 0
-133 53 0
-133 73 0
-133 -95 0
-133 -82 0
-133 -36 0
-133 -77 0
-133 7 0
-133 1 0
133 -42 24 -53 -73 95 82 36 77 -7 -1 0
-134 53 0
-134 43 0
-134 34 0
-134 36 0
-134 80 0
-134 29 0
-134 16 0
-134 58 0
-134 60 0
-134 -39 0
134 -53 -43 -34 -36 -80 -29 -16 -58 -60 39 0
-135 87 0
-135 -58 0
-135 27 0
-135 -23 0
-135 -28 0
-135 -70 0
-135 75 0
-135 53 0
-135 90 0
-135 -38 0
135 -87 58 -27 23 28 70 -75 -53 -90 38 0
-136 63 0
-136 68 0
-136 52 0
-136 -39 0
-136 90 0
-136 -75 0
-136 31 0
-136 13 0
-136 -86 0
-136 -100 0
136 -63 -68 -52 39 -90 75 -31 -13 86 100 0
-137 -29 0
-137 -78 0
-137 -93 0
-137 -68 0
-137 -31 0
-137 90 0
-137 -8 0
-137 -84 0
-137 71 0
-137 25 0
137 29 78 93 68 31 -90 8 84 -71 -25 0
-138 54 0
-138 17 0
-138 -22 0
-138 -34 0
-138 5 0
-138 56 0
-138 43 0
-138 47 0
-138 -45 0
-138 95 0
138 -54 -17 22 34 -5 -56 -43 -47 45 -95 0
-139 89 0
-139 30 0
-139 -6 0
-139 -50 0
-139 9 0
-139 13 0
-139 -74 0
-139 21 0
-139 76 0
-139 38 0
139 -89 -30 6 50 -9 -13 74 -21 -76 -38 0
-140 16 0
-140 -52 0
-140 -85 0
-140 47 0
-140 -86 0
-140 -34 0
-140 25 0
-140 -79 0
-140 63 0
-140 84 0
140 -16 52 85 -47 86 34 -25 79 -63 -84 0
131 132 133 134 135 136 137 138 139 140 0
-141 -62 0
-141 -42 0
-141 51 0
-141 19 0
-141 -27 0
-141 -4 0
-141 53 0
-141 -96 0
-141 15 0
-141 89 0
141 62 42 -51 -19 27 4 -53 96 -15 -89 0
-142 47 0
-142 98 0
-142 52 0
-142 53 0
-142 3 0
-142 74 0
-142 -54 0
-142 61 0
-142 -34 0
-142 43 0
142 -47 -98 -52 -53 -3 -74 54 -61 34 -43 0
-143 9 0
-143 -87 0
-143 23 0
-143 -82 0
-143 -92 0
-143 -81 0
-143 95 0
-143 65 0
-143 43 0
-143 -49 0
143 -9 87 -23 82 92 81 -95 -65 -43 49 0
-144 -19 0
-144 28 0
-144 53 0
-144 -86 0
-144 12 0
-144 25 0
-144 58 0
-144 100 0
-144 45 0
-144 56 0
144 19 -28 -53 86 -12 -25 -58 -100 -45 -56 0
-145 -90 0
-145 -100 0
-145 16 0
-145 -43 0
-145 59 0
-145 -10 0
-145 97 0
-145 63 0
-145 -95 0
-145 -12 0
145 90 100 -16 43 -59 10 -97 -63 95 12 0
-146 37 0
-146 65 0
-146 -67 0
-146 -1 0
-146 -83 0
-146 -97 0
-146 52 0
-146 -91 0
-146 -26 0
-146 -82 0
146 -37 -65 67 1 83 97 -52 91 26 82 0
-147 17 0
-147 91 0
-147 32 0
-147 -56 0
-147 79 0
-147 13 0
-147 96 0
-147 43 0
-147 99 0
-147 40 0
147 -17 -91 -32 56 -79 -13 -96 -43 -99 -40 0
-148 -5 0
-148 -42 0
-148 23 0
-148 -10 0
-148 -1 0
-148 73 0
-148 -29 0
-148 37 0
-148 -66 0
-148 -49 0
148 5 42 -23 10 1 -73 29 -37 66 49 0
-149 65 0
-149 -71 0
-149 47 0
-149 -91 0
-149 95 0
-149 63 0
-149 -56 0
-149 26 0
-149 54 0
-149 68 0
149 -65 71 -47 91 -95 -63 56 -26 -54 -68 0
-150 -85 0
-150 100 0
-150 -70 0
-150 64 0
-150 82 0
-150 -20 0
-150 -18 0
-150 -83 0
-150 -77 0
-150 38 0
150 85 -100 70 -64 -82 20 18 83 77 -38 0
141 142 143 144 145 146 147 148 149 150 0
-151 2 0
-151 -80 0
-151 11 0
-151 55 0
-151 -69 0
-151 -26 0
-151 -17 0
-151 -49 0
-151 -19 0
-151 63 0
151 -2 80 -11 -55 69 26 17 49 19 -63 0
-152 10 0
-152 18 0
-152 -23 0
-152 56 0
-152 76 0
-152 98 0
-152 -61 0
-152 -64 0
-152 45 0
-152 -21 0
152 -10 -18 23 -56 -76 -98 61 64 -45 21 0
-153 -36 0
-153 29 0
-153 -42 0
-153 -26 0
-153 60 0
-153 54 0
-153 35 0
-153 -33 0
-153 88 0
-153 -86 0
153 36 -29 42 26 -60 -54 -35 33 -88 86 0
-154 12 0
-154 72 0
-154 13 0
-154 43 0
-154 -39 0
-154 -46 0
-154 -54 0
-154 16 0
-154 78 0
-154 -2 0
154 -12 -72 -13 -43 39 46 54 -16 -78 2 0
-155 -30 0
-155 56 0
-155 -33 0
-155 -52 0
-155 -96 0
-155 -42 0
-155 -54 0
-155 55 0
-155 49 0
-155 63 0
155 30 -56 33 52 96 42 54 -55 -49 -63 0
-156 43 0
-156 -1 0
-156 39 0
-156 81 0
-156 -15 0
-156 62 0
-156 -20 0
-156 -55 0
-156 -44 0
-156 8 0
156 -43 1 -39 -81 15 -62 20 55 44 -8 0
-157 93 0
-157 -94 0
-157 -74 0
-157 19 0
-157 -23 0
-157 9 0
-157 -82 0
-157 -70 0
-157 88 0
-157 37 0
157 -93 94 74 -19 23 -9 82 70 -88 -37 0
-158 -52 0
-158 48 0
-158 -86 0
-158 -37 0
-158 -25 0
-158 32 0
-158 7 0
-158 67 0
-158 84 0
-158 -93 0
158 52 -48 86 37 25 -32 -7 -67 -84 93 0
-159 -47 0
-159 -73 0
-159 -44 0
-159 34 0
-159 77 0
-159 60 0
-159 28 0
-159 -86 0
-159 -89 0
-159 99 0
159 47 73 44 -34 -77 -60 -28 86 89 -99 0
-160 -94 0
-160 -57 0
-160 -35 0
-160 56 0
-160 52 0
-160 44 0
-160 2 0
-160 90 0
-160 66 0
-160 -60 0
160 94 57 35 -56 -52 -44 -2 -90 -66 60 0
151 152 153 154 155 156 157 158 159 160 0
-161 47 0
-161 33 0
-161 22 0
-161 71 0
-161 32 0
-161 45 0
-161 15 0
-161 -20 0
-161 36 0
-161 25 0
161 -47 -33 -22 -71 -32 -45 -15 20 -36 -25 0
-162 36 0
-162 27 0
-162 51 0
-162 -88 0
-162 -76 0
-162 -48 0
-162 -99 0
-162 -24 0
-162 37 0
-162 20 0
162 -36 -27 -51 88 76 48 99 24 -37 -20 0
-163 79 0
-163 86 0
-163 -57 0
-163 -64 0
-163 99 0
-163 -73 0
-163 -85 0
-163 -45 0
-163 -56 0
-163 -92 0
163 -79 -86 57 64 -99 73 85 45 56 92 0
-164 97 0
-164 68 0
-164 98 0
-164 95 0
-164 77 0
-164 6 0
-164 -24 0
-164 -29 0
-164 -47 0
-164 21 0
164 -97 -68 -98 -95 -77 -6 24 29 47 -21 0
-165 -21 0
-165 -68 0
-165 -82 0
-165 -69 0
-165 -94 0
-165 -63 0
-165 -52 0
-165 60 0
-165 -66 0
-165 -74 0
165 21 68 82 69 94 63 52 -60 66 74 0
-166 -20 0
-166 -34 0
-166 -80 0
-166 -82 0
-166 64 0
-166 84 0
-166 -43 0
-166 58 0
-166 -83 0
-166 9 0
166 20 34 80 82 -64 -84 43 -58 83 -9 0
-167 9 0
-167 -86 0
-167 16 0
-167 28 0
-167 27 0
-167 47 0
-167 36 0
-167 75 0
-167 -6 0
-167 24 0
167 -9 86 -16 -28 -27 -47 -36 -75 6 -24 0
-168 12 0
-168 -70 0
-168 -41 0
-168 -62 0
-168 -40 0
-168 -24 0
-168 84 0
-168 -97 0
-168 -44 0
-168 -20 0
168 -12 70 41 62 40 24 -84 97 44 20 0
-169 54 0
-169 12 0
-169 -15 0
-169 97 0
-169 -51 0
-169 -100 0
-169 -98 0
-169 83 0
-169 94 0
-169 90 0
169 -54 -12 15 -97 51 100 98 -83 -94 -90 0
-170 -45 0
-170 -91 0
-170 92 0
-170 67 0
-170 38 0
-170 -21 0
-170 -54 0
-170 95 0
-170 72 0
-170 65 0
170 45 91 -92 -67 -38 21 54 -95 -72 -65 0
161 162 163 164 165 166 167 168 169 170 0
-171 -82 0
-171 -81 0
-171 45 0
-171 -65 0
-171 15 0
-171 -60 0
-171 -12 0
-171 100 0
-171 -4 0
-171 -6 0
171 82 81 -45 65 -15 60 12 -100 4 6 0
-172 -46 0
-172 -59 0
-172 16 0
-172 45 0
-172 -26 0
-172 30 0
-172 19 0
-172 -51 0
-172 -49 0
-172 88 0
172 46 59 -16 -45 26 -30 -19 51 49 -88 0
-173 45 0
-173 -52 0
-173 87 0
-173 -43 0
-173 20 0
-173 -15 0
-173 58 0
-173 -79 0
-173 50 0
-173 -73 0
173 -45 52 -87 43 -20 15 -58 79 -50 73 0
-174 -50 0
-174 8 0
-174 49 0
-174 -18 0
-174 -82 0
-174 -75 0
-174 53 0
-174 61 0
-174 33 0
-174 -29 0
174 50 -8 -49 18 82 75 -53 -61 -33 29 0
-175 97 0
-175 -56 0
-175 -34 0
-175 7 0
-175 -77 0
-175 1 0
-175 -79 0
-175 -42 0
-175 -53 0
-175 -21 0
175 -97 56 34 -7 77 -1 79 42 53 21 0
-176 38 0
-176 64 0
-176 52 0
-176 20 0
-176 54 0
-176 -56 0
-176 -69 0
-176 95 0
-176 -51 0
-176 -10 0
176 -38 -64 -52 -20 -54 56 69 -95 51 10 0
-177 -25 0
-177 88 0
-177 57 0
-177 -84 0
-177 86 0
-177 69 0
-177 -52 0
-177 90 0
-177 -9 0
-177 -73 0
177 25 -88 -57 84 -86 -69 52 -90 9 73 0
-178 -78 0
-178 -58 0
-178 24 0
-178 37 0
-178 -83 0
-178 40 0
-178 -1 0
-178 64 0
-178 48 0
-178 11 0
178 78 58 -24 -37 83 -40 1 -64 -48 -11 0
-179 -89 0
-179 -42 0
-179 -36 0
-179 33 0
-179 -73 0
-179 28 0
-179 -66 0
-179 -23 0
-179 -71 0
-179 38 0
179 89 42 36 -33 73 -28 66 23 71 -38 0
-180 84 0
-180 -58 0
-180 -1 0
-180 39 0
-180 -8 0
-180 -38 0
-180 45 0
-180 56 0
-180 -74 0
-180 18 0
180 -84 58 1 -39 8 38 -45 -56 74 -18 0
171 172 173 174 175 176 177 178 179 180 0
-181 -23 0
-181 40 0
-181 -76 0
-181 -57 0
-181 -68 0
-181 82 0
-181 -9 0
-181 -96 0
-181 -91 0
-181 -47 0
181 23 -40 76 57 68 -82 9 96 91 47 0
-182 -71 0
-182 -32 0
-182 83 0
-182 58 0
-182 17 0
-182 72 0
-182 -19 0
-182 8 0
-182 26 0
-182 85 0
182 71 32 -83 -58 -17 -72 19 -8 -26 -85 0
-183 -12 0
-183 -52 0
-183 -72 0
-183 33 0
-183 32 0
-183 -44 0
-183 -17 0
-183 -82 0
-183 -76 0
-183 49 0
183 12 52 72 -33 -32 44 17 82 76 -49 0
-184 58 0
-184 -89 0
-184 86 0
-184 63 0
-184 -62 0
-184 100 0
-184 43 0
-184 69 0
-184 -47 0
-184 -61 0
184 -58 89 -86 -63 62 -100 -43 -69 47 61 0
-185 -42 0
-185 81 0
-185 -41 0
-185 -37 0
-185 -34 0
-185 57 0
-185 -12 0
-185 -30 0
-185 -76 0
-185 63 0
185 42 -81 41 37 34 -57 12 30 76 -63 0
-186 -46 0
-186 -20 0
-186 30 0
-186 -89 0
-186 86 0
-186 -37 0
-186 28 0
-186 -77 0
-186 -2 0
-186 52 0
186 46 20 -30 89 -86 37 -28 77 2 -52 0
-187 6 0
-187 34 0
-187 -69 0
-187 -5 0
-187 -40 0
-187 -8 0
-187 29 0
-187 -51 0
-187 92 0
-187 -72 0
187 -6 -34 69 5 40 8 -29 51 -92 72 0
-188 -89 0
-188 -48 0
-188 39 0
-188 9 0
-188 96 0
-188 -92 0
-188 55 0
-188 -8 0
-188 -72 0
-188 93 0
188 89 48 -39 -9 -96 92 -55 8 72 -93 0
-189 10 0
-189 68 0
-189 27 0
-189 84 0
-189 42 0
-189 66 0
-189 -1 0
-189 -38 0
-189 -82 0
-189 45 0
189 -10 -68 -27 -84 -42 -66 1 38 82 -45 0
-190 95 0
-190 7 0
-190 10 0
-190 -6 0
-190 24 0
-190 -34 0
-190 -47 0
-190 97 0
-190 -32 0
-190 71 0
190 -95 -7 -10 6 -24 34 47 -97 32 -71 0
181 182 183 184 185 186 187 188 189 190 0
-191 -17 0
-191 -49 0
-191 9 0
-191 61 0
-191 4 0
-191 -76 0
-191 -39 0
-191 28 0
-191 -69 0
-191 65 0
191 17 49 -9 -61 -4 76 39 -28 69 -65 0
-192 79 0
-192 -3 0
-192 -37 0
-192 -52 0
-192 -85 0
-192 73 0
-192 76 0
-192 57 0
-192 -69 0
-192 42 0
192 -79 3 37 52 85 -73 -76 -57 69 -42 0
-193 -45 0
-193 -96 0
-193 89 0
-193 -8 0
-193 87 0
-193 -14 0
-193 -20 0
-193 -49 0
-193 55 0
-193 41 0
193 45 96 -89 8 -87 14 20 49 -55 -41 0
-194 15 0
-194 -67 0
-194 63 0
-194 -71 0
-194 27 0
-194 -47 0
-194 -8 0
-194 31 0
-194 -21 0
-194 -49 0
194 -15 67 -63 71 -27 47 8 -31 21 49 0
-195 45 0
-195 -37 0
-195 -76 0
-195 19 0
-195 -33 0
-195 -98 0
-195 27 0
-195 -89 0
-195 20 0
-195 -49 0
195 -45 37 76 -19 33 98 -27 89 -20 49 0
-196 -32 0
-196 -82 0
-196 -58 0
-196 -7 0
-196 61 0
-196 -29 0
-196 -18 0
-196 -92 0
-196 -45 0
-196 -4 0
196 32 82 58 7 -61 29 18 92 45 4 0
-197 100 0
-197 70 0
-197 -47 0
-197 51 0
-197 19 0
-197 8 0
-197 34 0
-197 -94 0
-197 87 0
-197 89 0
197 -100 -70 47 -51 -19 -8 -34 94 -87 -89 0
-198 -31 0
-198 51 0
-198 75 0
-198 -5 0
-198 -94 0
-198 -80 0
-198 3 0
-198 35 0
-198 -69 0
-198 -42 0
198 31 -51 -75 5 94 80 -3 -35 69 42 0
-199 71 0
-199 -44 0
-199 -2 0
-199 -19 0
-199 -58 0
-199 97 0
-199 -9 0
-199 75 0
-199 67 0
-199 12 0
199 -71 44 2 19 58 -97 9 -75 -67 -12 0
-200 -23 0
-200 -19 0
-200 39 0
-200 51 0
-200 -91 0
-200 -13 0
-200 -53 0
-200 45 0
-200 33 0
-200 58 0
200 23 19 -39 -51 91 13 53 -45 -33 -58 0
191 192 193 194 195 196 197 198 199 200 0
